WARNING: for repeatability, setting FPU to use double precision
============================[ Problem Statistics ]=============================
|                                                                             |
|  Number of variables:            50                                         |
|  Number of clauses:             218                                         |
|  Parse time:                   0.00 s                                       |
|                                                                             |
============================[ Search Statistics ]==============================
| Conflicts |          ORIGINAL         |          LEARNT          | Progress |
|           |    Vars  Clauses Literals |    Limit  Clauses Lit/Cl |          |
===============================================================================
===============================================================================
restarts              : 1
conflicts             : 16             (11662 /sec)
decisions             : 25             (0.00 % random) (18222 /sec)
propagations          : 242            (176385 /sec)
conflict literals     : 79             (3.66 % deleted)
Memory used           : 20.00 MB
CPU time              : 0.001372 s

SATISFIABLE
